
Gurobi 11.0.3 (linux64) logging started Mon Aug 25 14:03:55 2025

Set parameter LogFile to value "/home/yihong/Coding/OR_SUC/SUC_epstheta_results_bigM100000_thread4/case24_ieee_rts_theta0.1_epsilon0.1_gurobi_seed60000_num_gen100_N_WDR50_load_scaling_factor1_proposed_eps_T16quadra_cost_bc1.03.txt"
Set parameter TimeLimit to value 3600
Gurobi Optimizer version 11.0.3 build v11.0.3rc0 (linux64 - "Ubuntu 20.04.6 LTS")

CPU model: AMD EPYC 7532 32-Core Processor, instruction set [SSE2|AVX|AVX2]
Thread count: 64 physical cores, 128 logical processors, using up to 4 threads

Academic license 2399124 - for non-commercial use only - registered to yi___@ed.ac.uk
Optimize a model with 38156 rows, 19891 columns and 876566 nonzeros
Model fingerprint: 0xfad34358
Model has 1600 quadratic constraints
Variable types: 18291 continuous, 1600 integer (1600 binary)
Coefficient statistics:
  Matrix range     [3e-04, 3e+03]
  QMatrix range    [2e-03, 8e-03]
  QLMatrix range   [1e+00, 6e+01]
  Objective range  [1e+00, 1e+00]
  Bounds range     [1e+00, 1e+00]
  RHS range        [1e+00, 9e+03]
Presolve removed 31226 rows and 8490 columns
Presolve time: 0.29s
Presolved: 6930 rows, 11401 columns, 38207 nonzeros
Presolved model has 1600 quadratic constraint(s)
Variable types: 9801 continuous, 1600 integer (1600 binary)

Root relaxation: objective 1.980309e+04, 5434 iterations, 0.14 seconds (0.18 work units)

    Nodes    |    Current Node    |     Objective Bounds      |     Work
 Expl Unexpl |  Obj  Depth IntInf | Incumbent    BestBd   Gap | It/Node Time

H    0     0                    456319.97820 19803.0939  95.7%     -    0s
*    0     0               0    456319.97820 19803.0939  95.7%     -    0s
     0     0 235218.219    0  452 456319.978 235218.219  48.5%     -    0s
     0     0 421022.401    0  170 456319.978 421022.401  7.74%     -    1s
     0     0 421120.317    0    2 456319.978 421120.317  7.71%     -    1s
     0     0 421120.317    0    2 456319.978 421120.317  7.71%     -    1s
     0     0 421120.317    0    2 456319.978 421120.317  7.71%     -    1s
     0     0 421120.317    0    2 456319.978 421120.317  7.71%     -    1s
     0     2 421120.317    0    2 456319.978 421120.317  7.71%     -    4s
    23    28 421196.663    5   16 456319.978 421125.803  7.71%  62.8    5s
H  128   129                    421393.94100 421125.803  0.06%  47.4    7s
*  128   129              31    421393.94100 421125.803  0.06%  48.1    7s

Cutting planes:
  Gomory: 36
  Implied bound: 188
  MIR: 12
  Flow cover: 145
  RLT: 189
  Relax-and-lift: 121

Explored 131 nodes (20004 simplex iterations) in 7.52 seconds (8.11 work units)
Thread count was 4 (of 128 available processors)

Solution count 3: 421394 421394 456320 

Optimal solution found (tolerance 1.00e-03)
Warning: max constraint violation (4.9471e-07) exceeds tolerance
Best objective 4.213939409972e+05, best bound 4.211258029862e+05, gap 0.0636%

Gurobi 11.0.3 (linux64) logging started Mon Aug 25 14:04:04 2025

Set parameter LogFile to value "/home/yihong/Coding/OR_SUC/SUC_epstheta_results_bigM100000_thread4/case24_ieee_rts_theta0.1_epsilon0.1_gurobi_seed60000_num_gen100_N_WDR50_load_scaling_factor1_proposed_eps_T16quadra_cost_bc1.03.txt"
Set parameter TimeLimit to value 3600
Gurobi Optimizer version 11.0.3 build v11.0.3rc0 (linux64 - "Ubuntu 20.04.6 LTS")

CPU model: AMD EPYC 7532 32-Core Processor, instruction set [SSE2|AVX|AVX2]
Thread count: 64 physical cores, 128 logical processors, using up to 4 threads

Academic license 2399124 - for non-commercial use only - registered to yi___@ed.ac.uk
Optimize a model with 38156 rows, 19892 columns and 881475 nonzeros
Model fingerprint: 0xc61ca45c
Model has 1601 quadratic constraints
Variable types: 18292 continuous, 1600 integer (1600 binary)
Coefficient statistics:
  Matrix range     [3e-04, 3e+03]
  QMatrix range    [2e-03, 5e+01]
  QLMatrix range   [1e+00, 6e+01]
  Objective range  [1e+00, 1e+00]
  Bounds range     [1e-01, 1e+00]
  RHS range        [1e+00, 4e+05]
  QRHS range       [5e+00, 5e+00]
Presolve removed 28244 rows and 7003 columns
Presolve time: 0.33s
Presolved: 11514 rows, 14489 columns, 58949 nonzeros
Presolved model has 1600 quadratic constraint(s)
Presolved model has 1 bilinear constraint(s)

Solving non-convex MIQCP

Variable types: 12885 continuous, 1604 integer (1604 binary)

Root relaxation: objective 1.495297e-03, 16672 iterations, 1.24 seconds (1.77 work units)

    Nodes    |    Current Node    |     Objective Bounds      |     Work
 Expl Unexpl |  Obj  Depth IntInf | Incumbent    BestBd   Gap | It/Node Time

     0     0    0.00150    0    3          -    0.00150      -     -    2s
     0     0    0.00205    0    8          -    0.00205      -     -    2s
H    0     0                       0.0135931    0.00205  84.9%     -    2s
H    0     0                       0.0125978    0.01238  1.70%     -    2s
     0     0    0.01248    0    4    0.01260    0.01248  0.93%     -    2s
     0     0    0.01248    0    4    0.01260    0.01248  0.92%     -    2s
     0     0    0.01248    0    3    0.01260    0.01248  0.91%     -    3s
     0     0    0.01248    0    3    0.01260    0.01248  0.90%     -    3s
     0     0    0.01248    0    3    0.01260    0.01248  0.90%     -    3s
     0     0    0.01248    0    3    0.01260    0.01248  0.90%     -    3s
     0     0    0.01248    0    4    0.01260    0.01248  0.90%     -    3s
     0     0    0.01248    0    4    0.01260    0.01248  0.90%     -    3s
     0     0    0.01248    0    4    0.01260    0.01248  0.90%     -    3s
     0     0    0.01248    0    4    0.01260    0.01248  0.90%     -    3s
     0     0    0.01248    0    4    0.01260    0.01248  0.90%     -    3s
     0     0    0.01248    0    4    0.01260    0.01248  0.90%     -    3s
H    0     0                       0.0125832    0.01248  0.78%     -    4s
     0     2    0.01248    0    4    0.01258    0.01248  0.78%     -    5s
H   60    28                       0.0125621    0.01250  0.50%  19.6    8s
*   60    28              11       0.0125621    0.01250  0.50%  19.7    8s
H   64    28                       0.0125615    0.01250  0.49%  19.0    9s
*   64    28              12       0.0125615    0.01250  0.49%  19.2    9s
H   71    25                       0.0125610    0.01250  0.47%  18.7    9s
*   71    25              13       0.0125610    0.01250  0.47%  18.8    9s
    82    28     cutoff    6         0.01256    0.01250  0.47%  20.1   10s

Cutting planes:
  Implied bound: 10
  MIR: 1
  Flow cover: 2
  RLT: 1

Explored 184 nodes (23371 simplex iterations) in 11.51 seconds (14.43 work units)
Thread count was 4 (of 128 available processors)

Solution count 7: 0.012561 0.012561 0.0125615 ... 0.0135931

Optimal solution found (tolerance 1.00e-03)
Warning: max constraint violation (2.1474e-05) exceeds tolerance
Best objective 1.256104785804e-02, best bound 1.256049740702e-02, gap 0.0044%
